************************************************************************
file with basedata            : md124_.bas
initial value random generator: 1546522482
************************************************************************
projects                      :  1
jobs (incl. supersource/sink ):  14
horizon                       :  96
RESOURCES
  - renewable                 :  2   R
  - nonrenewable              :  2   N
  - doubly constrained        :  0   D
************************************************************************
PROJECT INFORMATION:
pronr.  #jobs rel.date duedate tardcost  MPM-Time
    1     12      0       16        3       16
************************************************************************
PRECEDENCE RELATIONS:
jobnr.    #modes  #successors   successors
   1        1          3           2   3   4
   2        3          3           6   7   9
   3        3          3           5  10  13
   4        3          3           5   6   9
   5        3          2          11  12
   6        3          1           8
   7        3          2          10  11
   8        3          3          11  12  13
   9        3          2          10  13
  10        3          1          12
  11        3          1          14
  12        3          1          14
  13        3          1          14
  14        1          0        
************************************************************************
REQUESTS/DURATIONS:
jobnr. mode duration  R 1  R 2  N 1  N 2
------------------------------------------------------------------------
  1      1     0       0    0    0    0
  2      1     4       0    9    6    3
         2     6       5    0    6    2
         3     9       0    7    6    1
  3      1     2       9    0    3    4
         2     6       0    4    3    4
         3    10       5    0    3    2
  4      1     1       0    8    8    5
         2     3       6    0    8    5
         3     8       6    0    7    5
  5      1     1       9    0    7    8
         2     5       7    0    6    8
         3     7       4    0    5    7
  6      1     2       0    9    5    8
         2     7       0    8    5    5
         3    10       6    0    4    3
  7      1     5       6    0    7    8
         2     7       0    3    5    5
         3     9       0    3    5    4
  8      1     2       3    0    5    7
         2     2       2    0    7    8
         3     6       0    6    5    4
  9      1     1       0    5    3    7
         2     2       4    0    3    6
         3     3       0    3    2    5
 10      1     4       0    5    5    8
         2     6       0    5    5    6
         3     9       0    2    4    3
 11      1     2       5    0    9    3
         2     3       0    9    9    2
         3     8       5    0    6    1
 12      1     3       0   10    9    7
         2     4       5    0    5    5
         3     7       0    9    2    3
 13      1     4       3    0    8    3
         2    10       3    0    5    2
         3    10       0    6    6    2
 14      1     0       0    0    0    0
************************************************************************
RESOURCEAVAILABILITIES:
  R 1  R 2  N 1  N 2
   20   21   77   72
************************************************************************
